c A SAT instance generated from a 3-CNF formula that had 13 clauses and 24 variables
p cnf 24 13
-1 -2 -22 0
16 -19 22 0
7 -4 -12 0
3 -20 -17 0
-17 -9 18 0
6 1 -24 0
-10 -14 24 0
-20 22 18 0
13 14 1 0
19 -12 24 0
21 -7 15 0
-12 -16 6 0
22 2 -5 0
